NAME: random-43-21598
TYPE: TSP
COMMENT: size=43 seed=21598
DIMENSION: 88
EDGE_WEIGHT_TYPE: EUC_2D
NODE_COORD_SECTION
+0 586 422
-0 586 422
+1 758 993
-1 960 730
+2 817 993
-2 666 624
+3 507 454
-3 588 114
+4 281 540
-4 513 355
+5 842 758
-5 142 421
+6 955 74
-6 260 663
+7 320 162
-7 339 681
+8 980 491
-8 21 951
+9 481 710
-9 854 128
+10 521 869
-10 638 238
+11 93 367
-11 970 189
+12 829 511
-12 160 748
+13 39 273
-13 391 408
+14 123 819
-14 801 718
+15 670 556
-15 252 522
+16 75 898
-16 290 511
+17 901 910
-17 546 126
+18 82 582
-18 943 715
+19 693 121
-19 941 864
+20 57 783
-20 868 355
+21 622 998
-21 490 43
+22 556 627
-22 132 649
+23 83 441
-23 94 131
+24 868 948
-24 972 875
+25 810 824
-25 517 547
+26 886 222
-26 336 95
+27 491 990
-27 631 971
+28 391 664
-28 465 862
+29 766 637
-29 772 424
+30 125 376
-30 804 75
+31 950 354
-31 942 833
+32 406 150
-32 737 569
+33 874 891
-33 862 980
+34 539 434
-34 4 284
+35 805 740
-35 207 333
+36 29 704
-36 959 642
+37 415 738
-37 22 825
+38 676 604
-38 427 624
+39 630 425
-39 568 780
+40 810 605
-40 198 777
+41 360 534
-41 43 363
+42 307 265
-42 197 796
+43 544 883
-43 214 990
PRECEDENCE_SECTION
+0 -0
+1 -1
+2 -2
+3 -3
+4 -4
+5 -5
+6 -6
+7 -7
+8 -8
+9 -9
+10 -10
+11 -11
+12 -12
+13 -13
+14 -14
+15 -15
+16 -16
+17 -17
+18 -18
+19 -19
+20 -20
+21 -21
+22 -22
+23 -23
+24 -24
+25 -25
+26 -26
+27 -27
+28 -28
+29 -29
+30 -30
+31 -31
+32 -32
+33 -33
+34 -34
+35 -35
+36 -36
+37 -37
+38 -38
+39 -39
+40 -40
+41 -41
+42 -42
+43 -43
EOF
